db/data/2495017370218001514029571235822572813438.z3.out
-------------------
2500.103996712
